30	13000	3000	1200
2221	531	631
3639	575	793
2650	594	740
4667	831	638
2774	711	688
2914	708	781
3123	729	766
4303	713	601
4826	543	519
2757	855	614
2705	590	746
4790	507	562
3008	606	672
4269	610	763
3689	602	689
2226	888	547
2615	692	722
2679	591	781
3461	792	591
3465	889	709
4152	510	539
2649	501	712
2046	588	573
2025	752	521
3441	750	549
3517	662	714
3241	677	542
3945	661	711
2004	848	730
2908	704	644
